%SETS
JOBS     = 1..4;
MACHINES = 1..7;
SPEED    = 1;

time               = array3d(JOBS,MACHINES,1..SPEED,[90, 96, 44, 81, 57, 61, 93, 16, 17, 11, 84, 80, 88, 98, 81, 51, 80, 20, 67, 22, 95, 56, 47, 33, 79, 51, 61, 11]);
energy             = array3d(JOBS,MACHINES,1..SPEED,[40, 38, 64, 44, 56, 54, 39, 85, 84, 89, 43, 44, 41, 37, 44, 60, 44, 81, 51, 80, 38, 57, 62, 71, 45, 60, 54, 89]);
precedence         = array2d(JOBS,MACHINES,[4,2,1,0,3,6,5,2,5,4,0,6,1,3,0,6,2,3,1,4,5,3,1,5,6,0,2,4]);